25 50
1 2 2
1 6 2
2 3 5
2 7 3
3 4 1
3 8 4
4 5 5
4 9 2
5 10 5
6 7 1
6 11 2
7 8 3
7 12 4
8 9 5
8 13 1
9 10 5
9 14 5
10 15 2
11 12 3
11 16 5
12 13 1
12 17 3
13 14 4
13 18 3
14 15 4
14 19 2
15 20 3
16 17 5
16 21 2
17 18 3
17 22 1
18 19 3
18 23 3
19 20 4
19 24 1
20 25 2
21 22 5
22 23 2
23 24 1
24 25 5
1 21 1
2 22 3
3 23 4
4 24 1
5 25 3
1 5 1
6 10 2
11 15 4
16 20 3
21 25 2
